************************************************************************
file with basedata            : mm34_.bas
initial value random generator: 1280105950
************************************************************************
projects                      :  1
jobs (incl. supersource/sink ):  12
horizon                       :  92
RESOURCES
  - renewable                 :  2   R
  - nonrenewable              :  2   N
  - doubly constrained        :  0   D
************************************************************************
PROJECT INFORMATION:
pronr.  #jobs rel.date duedate tardcost  MPM-Time
    1     10      0       15        7       15
************************************************************************
PRECEDENCE RELATIONS:
jobnr.    #modes  #successors   successors
   1        1          3           2   3   4
   2        3          3           5   6   9
   3        3          2           7  11
   4        3          1           9
   5        3          2          10  11
   6        3          2           7  11
   7        3          1           8
   8        3          1          10
   9        3          1          12
  10        3          1          12
  11        3          1          12
  12        1          0        
************************************************************************
REQUESTS/DURATIONS:
jobnr. mode duration  R 1  R 2  N 1  N 2
------------------------------------------------------------------------
  1      1     0       0    0    0    0
  2      1     4       6    3    0    8
         2     6       4    3    0    6
         3    10       4    3    3    0
  3      1     4       4    2    9    0
         2     5       3    2    8    0
         3     9       1    1    0    7
  4      1     3       3    7    0    9
         2     9       3    6    0    9
         3    10       2    5    8    0
  5      1     4       5    7    3    0
         2    10       4    1    0    5
         3    10       5    1    2    0
  6      1     3       6    6    7    0
         2     5       6    4    5    0
         3    10       4    3    0    7
  7      1     1       2    3    0   10
         2     5       2    2    0    8
         3    10       2    1    0    7
  8      1     5       4    9    6    0
         2     7       4    8    0    3
         3     8       3    8    5    0
  9      1     8       7    8    9    0
         2     9       5    8    9    0
         3    10       4    8    7    0
 10      1     2       8    7    9    0
         2     4       3    5    0    5
         3     6       2    3    9    0
 11      1     1       9    9    0    6
         2     3       6    8    0    3
         3     9       5    7    6    0
 12      1     0       0    0    0    0
************************************************************************
RESOURCEAVAILABILITIES:
  R 1  R 2  N 1  N 2
    8   12   34   34
************************************************************************
MAXIMAL LAGS:
from  to  type  delay
    1   12   ES      0
    1    2   ES      0
    2   12   ES      0
    1    3   ES      0
    3   12   ES      0
    1    4   ES      0
    4   12   ES      0
    1    5   ES      0
    5   12   ES      0
    1    6   ES      0
    6   12   ES      0
    1    7   ES      0
    7   12   ES      0
    1    8   ES      0
    8   12   ES      0
    1    9   ES      0
    9   12   ES      0
    1   10   ES      0
   10   12   ES      0
    1   11   ES      0
   11   12   ES      0
    1   12   ES      0
    2    5   SS     11
    2    5   SE      7
    2    5   ES     -4
    2    5   EE      9
    2    6   SS     -9
    2    6   SE      1
    2    6   ES      5
    2    6   EE    -12
    2    9   SS    -12
    2    9   SE      0
    2    9   ES     -9
    2    9   EE    -12
    3    7   SS     -7
    3    7   SE      8
    3    7   ES      3
    3    7   EE      2
    3   11   SS     10
    3   11   SE      0
    3   11   ES      9
    3   11   EE     11
    4    9   SS      7
    4    9   SE     11
    4    9   ES      3
    4    9   EE     -3
    5   10   SS      7
    5   10   SE      7
    5   10   ES     -1
    5   10   EE     10
    5   11   SS      9
    5   11   SE     10
    5   11   ES      9
    5   11   EE      0
    6    7   SS     -3
    6    7   SE    -10
    6    7   ES     -8
    6    7   EE     -8
    6   11   SS    -12
    6   11   SE     -6
    6   11   ES     -9
    6   11   EE    -12
    7    8   SS     10
    7    8   SE     -6
    7    8   ES    -12
    7    8   EE     -6
    8   10   SS      3
    8   10   SE      8
    8   10   ES     -8
    8   10   EE      8
************************************************************************
